one_pair/091.col
p edge 86 134
e 1 13
e 1 14
e 1 58
e 1 79
e 2 13
e 2 21
e 2 59
e 3 39
e 3 40
e 3 70
e 3 73
e 4 26
e 4 52
e 4 19
e 5 36
e 5 16
e 5 83
e 5 86
e 6 19
e 6 51
e 6 46
e 7 15
e 7 16
e 7 25
e 7 69
e 8 17
e 8 16
e 8 46
e 8 68
e 9 23
e 10 53
e 10 63
e 10 71
e 11 21
e 11 41
e 12 22
e 12 65
e 12 42
e 12 80
e 13 66
e 14 52
e 14 78
e 14 82
e 15 37
e 16 46
e 18 83
e 19 70
e 20 51
e 20 71
e 21 57
e 21 82
e 23 57
e 23 73
e 23 80
e 24 73
e 25 37
e 25 40
e 25 73
e 26 65
e 26 73
e 26 74
e 27 29
e 27 49
e 27 41
e 27 59
e 27 42
e 27 81
e 28 30
e 28 31
e 28 47
e 29 71
e 29 43
e 29 78
e 30 50
e 31 66
e 31 38
e 32 37
e 32 33
e 33 53
e 33 59
e 33 61
e 33 80
e 34 55
e 34 63
e 34 71
e 34 72
e 34 80
e 35 61
e 35 85
e 36 43
e 36 41
e 36 72
e 37 58
e 37 80
e 38 41
e 38 48
e 38 50
e 38 64
e 38 80
e 38 84
e 39 60
e 39 79
e 40 76
e 40 82
e 40 85
e 41 71
e 41 42
e 42 43
e 42 60
e 43 46
e 44 55
e 45 46
e 45 55
e 47 68
e 47 80
e 49 56
e 49 71
e 50 62
e 50 67
e 50 74
e 52 73
e 52 62
e 54 76
e 59 71
e 61 66
e 64 82
e 65 82
e 66 81
e 68 77
e 72 75
e 73 79
e 73 84
e 76 86
e 79 86
l 14
t 18 61
